
******************************************************************************
This program contains Ipopt, a library for large-scale nonlinear optimization.
 Ipopt is released as open source code under the Eclipse Public License (EPL).
         For more information visit http://projects.coin-or.org/Ipopt
******************************************************************************

This is Ipopt version 3.12.6, running with linear solver ma57.

Number of nonzeros in equality constraint Jacobian...:        0
Number of nonzeros in inequality constraint Jacobian.:        3
Number of nonzeros in Lagrangian Hessian.............:        5

Total number of variables............................:        3
                     variables with only lower bounds:        3
                variables with lower and upper bounds:        0
                     variables with only upper bounds:        0
Total number of equality constraints.................:        0
Total number of inequality constraints...............:        1
        inequality constraints with only lower bounds:        1
   inequality constraints with lower and upper bounds:        0
        inequality constraints with only upper bounds:        0

iter    objective    inf_pr   inf_du lg(mu)  ||d||  lg(rg) alpha_du alpha_pr  ls
   0  2.2500000e+00 0.00e+00 2.71e+00  -1.0 0.00e+00    -  0.00e+00 0.00e+00   0
   1  4.2403813e-01 0.00e+00 8.59e-01  -1.0 6.19e-01    -  5.35e-01 1.00e+00f  1
   2  1.7013463e-01 0.00e+00 2.00e-07  -1.7 3.57e-01    -  1.00e+00 1.00e+00f  1
   3  1.3435447e-01 0.00e+00 2.34e-02  -2.5 1.33e-01    -  8.91e-01 1.00e+00f  1
   4  1.1333757e-01 0.00e+00 1.50e-09  -3.8 8.95e-02    -  1.00e+00 1.00e+00f  1
   5  1.1127951e-01 0.00e+00 1.50e-09  -3.8 9.21e-03    -  1.00e+00 1.00e+00f  1
   6  1.1111322e-01 0.00e+00 1.84e-11  -5.7 7.48e-04    -  1.00e+00 1.00e+00f  1
   7  1.1111111e-01 0.00e+00 2.51e-14  -8.6 9.49e-06    -  1.00e+00 1.00e+00f  1

Number of Iterations....: 7

                                   (scaled)                 (unscaled)
Objective...............:   1.1111111143555985e-01    1.1111111143555985e-01
Dual infeasibility......:   2.5063284780912909e-14    2.5063284780912909e-14
Constraint violation....:   0.0000000000000000e+00    0.0000000000000000e+00
Complementarity.........:   2.5466724220137041e-09    2.5466724220137041e-09
Overall NLP error.......:   2.5466724220137041e-09    2.5466724220137041e-09


Number of objective function evaluations             = 8
Number of objective gradient evaluations             = 8
Number of equality constraint evaluations            = 0
Number of inequality constraint evaluations          = 8
Number of equality constraint Jacobian evaluations   = 0
Number of inequality constraint Jacobian evaluations = 8
Number of Lagrangian Hessian evaluations             = 7
Total CPU secs in IPOPT (w/o function evaluations)   =      0.000
Total CPU secs in NLP function evaluations           =      0.000

EXIT: Optimal Solution Found.

************************ CUTEst statistics ************************


 Package used            :  IPOPT
 Problem                 :  HS35      
 # variables             =               3
 # constraints           =               1
 # objective functions   =        0.1700000E+02
 # objective gradients   =        0.9000000E+01
 # objective Hessians    =        0.8000000E+01
 # Hessian-vector prdct  =        0.0000000E+00
 # constraints functions =        0.1800000E+02
 # constraints gradients =        0.1000000E+02
 # constraints Hessians  =        0.8000000E+01
 Exit code               =               0
 Final f                 =   0.1111111E+00
 Set up time             =            0.00 seconds
 Solve time              =            0.01 seconds


******************************************************************

System Time =       0.0030000000 s.
